InboundTrucks  = 8;
OutboundTrucks = 5;
InboundDoors   = 2;
OutboundDoors  = 1;
ReleaseTime    = [18,6,17,11,14,1,21,16];
UnloadTime     = [4,10,4,5,8,4,6,8];
LoadTime       = [2,5,4,3,2];
TransferTime   = [| 2,3,0,5,0 | 3,0,0,0,0 | 0,1,0,2,0 | 0,3,3,3,2 | 1,0,0,0,0 | 0,0,5,0,4 | 0,5,0,2,0 | 0,1,1,2,5 |];
